1	2	0
2	10	14	
3	11	8
4	14	8
5	8	2
6	6	8
7	20	8
8	19	3
9	17	10
10	6	17
11	14	11
12	10	10
13	16	4
14	6	16
15	6	10
16	8	10
17	16	6
18	8	8
19	10	12
20	16	8
21	10	13
22	6	12
23	10	10
24	8	14
25	6	10
26	8	13
27	8	3
28	18	5
29	16	1
30	8	1
31	10	1
32	2	17
33	14	2
34	16	0
35	6	7
36	20	3
37	18	9
38	16	7
39      4	3
40	2	1
41	9	9
42	7	7
43	16	7
44	13	7
45	17	11
46	18	20
47	4	12
48	5	17
49	1	17
50	8	17